\ENCODING=ISO-8859-1
\Problem name: IloCplex_conflict

Minimize
 obj1: 0 x9 + 0 x10 + 0 x11 + 0 x12 + 0 x13 + 0 x14 + 0 x15 + 0 x16 + 0 x17
       + 0 x18 + 0 x19 + 0 x20 + 0 x21 + 0 x22 + 0 x23 + 0 x24 + 0 x25 + 0 x26
       + 0 x27 + 0 x28 + 0 x29 + 0 x30 + 0 x31 + 0 x32 + 0 x33 + 0 x34 + 0 x35
       + 0 x36 + 0 x37 + 0 x38 + 0 x39 + 0 x40
Subject To
 c1: - x1 + x3  = -20
 c2: x1 - x2 - x4  = 0
 c3: x2 - x3  = 0
 c4: x4 - x5 + x7  = 0
 c5: x5 - x6  = 0
 c6: x6 - x7 + x8  = 0
\Sum of equality rows in the conflict:
\ sum_eq: x8  = -20
End
